Instance Name : rc203
Date : 2022-07-24
Solution
Route 1 : 91 92 95 62 33 28 26 27 29 31 30 32 34 50 67 84 56 66 80
Route 2 : 64 19 23 21 48 18 51 85 63 89 76 49 20 22 24 74 58 75 77 25 57 83
Route 3 : 65 99 52 86 87 59 97 9 10 13 16 17 47 14 12 82 90
Route 4 : 69 98 11 15 60 88 53 78 73 79 7 6 8 46 4 2 55 68 61 70 100
Route 5 : 45 5 3 1 42 39 36 43 44 41 38 40 35 37 72 71 93 94 96 54 81
